(declare-const X String)
; ad\x2Emokead\x2Ecom\d+Spy\d+ZOMBIES\x5fHTTP\x5fGETearch\x2Eearthlinkwww\x2Epurityscan\x2EcomUser-Agent\x3a
(assert (not (str.in_re X (re.++ (str.to_re "ad.mokead.com") (re.+ (re.range "0" "9")) (str.to_re "Spy") (re.+ (re.range "0" "9")) (str.to_re "ZOMBIES_HTTP_GETearch.earthlinkwww.purityscan.comUser-Agent:\u{a}")))))
; 100013Agentsvr\x5E\x5EMerlinIPBeta\s\x3E\x3C
(assert (not (str.in_re X (re.++ (str.to_re "100013Agentsvr^^Merlin\u{13}IPBeta") (re.union (str.to_re " ") (str.to_re "\u{9}") (str.to_re "\u{a}") (str.to_re "\u{c}") (str.to_re "\u{d}")) (str.to_re "><\u{a}")))))
(check-sat)
